experiments/knapsack_bounded/knapsack_bounded_10_10.mps
NAME
ROWS
 N  OBJ
 L  c1
 L  c2
 L  c3
 L  c4
 L  c5
 L  c6
 L  c7
 L  c8
 L  c9
 L  c10
 L  c11
COLUMNS
    MARKER    'MARKER'                 'INTORG'
    x[1]      c1        384
    x[1]      c2        1
    x[1]      OBJ       -591
    x[2]      c1        907
    x[2]      c3        1
    x[2]      OBJ       -923
    x[3]      c1        295
    x[3]      c4        1
    x[3]      OBJ       -644
    x[4]      c1        262
    x[4]      c5        1
    x[4]      OBJ       -444
    x[5]      c1        110
    x[5]      c6        1
    x[5]      OBJ       -720
    x[6]      c1        883
    x[6]      c7        1
    x[6]      OBJ       -231
    x[7]      c1        660
    x[7]      c8        1
    x[7]      OBJ       -685
    x[8]      c1        115
    x[8]      c9        1
    x[8]      OBJ       -93
    x[9]      c1        726
    x[9]      c10       1
    x[9]      OBJ       -829
    x[10]     c1        251
    x[10]     c11       1
    x[10]     OBJ       -767
    MARKER    'MARKER'                 'INTEND'
RHS
    rhs       c1        2296
    rhs       c2        4
    rhs       c3        9
    rhs       c4        4
    rhs       c5        9
    rhs       c6        7
    rhs       c7        4
    rhs       c8        10
    rhs       c9        9
    rhs       c10       5
    rhs       c11       10
RANGES
BOUNDS
 LO bounds    x[1]      0
 PL bounds    x[1]
 LO bounds    x[2]      0
 PL bounds    x[2]
 LO bounds    x[3]      0
 PL bounds    x[3]
 LO bounds    x[4]      0
 PL bounds    x[4]
 LO bounds    x[5]      0
 PL bounds    x[5]
 LO bounds    x[6]      0
 PL bounds    x[6]
 LO bounds    x[7]      0
 PL bounds    x[7]
 LO bounds    x[8]      0
 PL bounds    x[8]
 LO bounds    x[9]      0
 PL bounds    x[9]
 LO bounds    x[10]     0
 PL bounds    x[10]
ENDATA
